\ENCODING=ISO-8859-1
\Problem name: IloCplex

Maximize
 obj: - 26 yd1 + 19 yo1 + 27 yo2 + 26 yo3 + 16 yo4 + 14 yo5 + 18 yo6 + 24 yo7
      + 29 yo8 + 27 yo9 + 15 yo10 + 19 yo11 + 15 yo12 + 14 yo13 + 15 yo14
      + 32 yo15 + 21 yo16 + 31 yo17 + 26 yo18 + 294 yo19 - 19 yd2 - 21 yd3
      - 22 yd4 - 24 yd5 - 29 yd6 - 26 yd7 - 19 yd8 - 21 yd9 - 18 yd10 - 17 yd11
      - 25 yd12 - 33 yd13 - 22 yd14 - 33 yd15 - 32 yd16 - 30 yd17 - 265 yd18
Subject To
 c1:   - yd1 + yo1 <= 124
 c2:   - yd1 + yo2 <= 196
 c3:   - yd1 + yo3 <= 263
 c4:   - yd1 + yo4 <= 410
 c5:   - yd1 + yo5 <= 342
 c6:   - yd1 + yo6 <= 341
 c7:   - yd1 + yo7 <= 368
 c8:   - yd1 + yo8 <= 189
 c9:   - yd1 + yo9 <= 476
 c10:  - yd1 + yo10 <= 488
 c11:  - yd1 + yo11 <= 492
 c12:  - yd1 + yo12 <= 92
 c13:  - yd1 + yo13 <= 180
 c14:  - yd1 + yo14 <= 245
 c15:  - yd1 + yo15 <= 431
 c16:  - yd1 + yo16 <= 153
 c17:  - yd1 + yo17 <= 401
 c18:  - yd1 + yo18 <= 464
 c19:  - yd1 + yo19 <= 250
 c20:  yo1 - yd2 <= 423
 c21:  yo2 - yd2 <= 123
 c22:  yo3 - yd2 <= 468
 c23:  yo4 - yd2 <= 494
 c24:  yo5 - yd2 <= 346
 c25:  yo6 - yd2 <= 485
 c26:  yo7 - yd2 <= 439
 c27:  yo8 - yd2 <= 221
 c28:  yo9 - yd2 <= 446
 c29:  yo10 - yd2 <= 468
 c30:  yo11 - yd2 <= 318
 c31:  yo12 - yd2 <= 192
 c32:  yo13 - yd2 <= 142
 c33:  yo14 - yd2 <= 395
 c34:  yo15 - yd2 <= 338
 c35:  yo16 - yd2 <= 179
 c36:  yo17 - yd2 <= 480
 c37:  yo18 - yd2 <= 345
 c38:  yo19 - yd2 <= 172
 c39:  yo1 - yd3 <= 223
 c40:  yo2 - yd3 <= 100
 c41:  yo3 - yd3 <= 53
 c42:  yo4 - yd3 <= 50
 c43:  yo5 - yd3 <= 154
 c44:  yo6 - yd3 <= 67
 c45:  yo7 - yd3 <= 374
 c46:  yo8 - yd3 <= 242
 c47:  yo9 - yd3 <= 146
 c48:  yo10 - yd3 <= 496
 c49:  yo11 - yd3 <= 310
 c50:  yo12 - yd3 <= 172
 c51:  yo13 - yd3 <= 121
 c52:  yo14 - yd3 <= 287
 c53:  yo15 - yd3 <= 478
 c54:  yo16 - yd3 <= 216
 c55:  yo17 - yd3 <= 210
 c56:  yo18 - yd3 <= 382
 c57:  yo19 - yd3 <= 85
 c58:  yo1 - yd4 <= 273
 c59:  yo2 - yd4 <= 380
 c60:  yo3 - yd4 <= 445
 c61:  yo4 - yd4 <= 336
 c62:  yo5 - yd4 <= 353
 c63:  yo6 - yd4 <= 221
 c64:  yo7 - yd4 <= 481
 c65:  yo8 - yd4 <= 273
 c66:  yo9 - yd4 <= 194
 c67:  yo10 - yd4 <= 215
 c68:  yo11 - yd4 <= 294
 c69:  yo12 - yd4 <= 152
 c70:  yo13 - yd4 <= 287
 c71:  yo14 - yd4 <= 119
 c72:  yo15 - yd4 <= 96
 c73:  yo16 - yd4 <= 327
 c74:  yo17 - yd4 <= 89
 c75:  yo18 - yd4 <= 354
 c76:  yo19 - yd4 <= 172
 c77:  yo1 - yd5 <= 160
 c78:  yo2 - yd5 <= 259
 c79:  yo3 - yd5 <= 186
 c80:  yo4 - yd5 <= 278
 c81:  yo5 - yd5 <= 271
 c82:  yo6 - yd5 <= 90
 c83:  yo7 - yd5 <= 174
 c84:  yo8 - yd5 <= 161
 c85:  yo9 - yd5 <= 499
 c86:  yo10 - yd5 <= 232
 c87:  yo11 - yd5 <= 276
 c88:  yo12 - yd5 <= 192
 c89:  yo13 - yd5 <= 472
 c90:  yo14 - yd5 <= 488
 c91:  yo15 - yd5 <= 332
 c92:  yo16 - yd5 <= 50
 c93:  yo17 - yd5 <= 55
 c94:  yo18 - yd5 <= 418
 c95:  yo19 - yd5 <= 312
 c96:  yo1 - yd6 <= 88
 c97:  yo2 - yd6 <= 148
 c98:  yo3 - yd6 <= 284
 c99:  yo4 - yd6 <= 306
 c100: yo5 - yd6 <= 122
 c101: yo6 - yd6 <= 264
 c102: yo7 - yd6 <= 443
 c103: yo8 - yd6 <= 404
 c104: yo9 - yd6 <= 393
 c105: yo10 - yd6 <= 218
 c106: yo11 - yd6 <= 488
 c107: yo12 - yd6 <= 174
 c108: yo13 - yd6 <= 171
 c109: yo14 - yd6 <= 196
 c110: yo15 - yd6 <= 73
 c111: yo16 - yd6 <= 481
 c112: yo17 - yd6 <= 306
 c113: yo18 - yd6 <= 377
 c114: yo19 - yd6 <= 342
 c115: yo1 - yd7 <= 208
 c116: yo2 - yd7 <= 345
 c117: yo3 - yd7 <= 351
 c118: yo4 - yd7 <= 146
 c119: yo5 - yd7 <= 149
 c120: yo6 - yd7 <= 84
 c121: yo7 - yd7 <= 448
 c122: yo8 - yd7 <= 75
 c123: yo9 - yd7 <= 385
 c124: yo10 - yd7 <= 289
 c125: yo11 - yd7 <= 80
 c126: yo12 - yd7 <= 253
 c127: yo13 - yd7 <= 496
 c128: yo14 - yd7 <= 422
 c129: yo15 - yd7 <= 165
 c130: yo16 - yd7 <= 298
 c131: yo17 - yd7 <= 114
 c132: yo18 - yd7 <= 51
 c133: yo19 - yd7 <= 305
 c134: yo1 - yd8 <= 438
 c135: yo2 - yd8 <= 483
 c136: yo3 - yd8 <= 168
 c137: yo4 - yd8 <= 471
 c138: yo5 - yd8 <= 218
 c139: yo6 - yd8 <= 120
 c140: yo7 - yd8 <= 219
 c141: yo8 - yd8 <= 129
 c142: yo9 - yd8 <= 61
 c143: yo10 - yd8 <= 202
 c144: yo11 - yd8 <= 381
 c145: yo12 - yd8 <= 120
 c146: yo13 - yd8 <= 392
 c147: yo14 - yd8 <= 494
 c148: yo15 - yd8 <= 454
 c149: yo16 - yd8 <= 173
 c150: yo17 - yd8 <= 128
 c151: yo18 - yd8 <= 495
 c152: yo19 - yd8 <= 116
 c153: yo1 - yd9 <= 396
 c154: yo2 - yd9 <= 430
 c155: yo3 - yd9 <= 254
 c156: yo4 - yd9 <= 177
 c157: yo5 - yd9 <= 362
 c158: yo6 - yd9 <= 271
 c159: yo7 - yd9 <= 174
 c160: yo8 - yd9 <= 53
 c161: yo9 - yd9 <= 464
 c162: yo10 - yd9 <= 424
 c163: yo11 - yd9 <= 361
 c164: yo12 - yd9 <= 399
 c165: yo13 - yd9 <= 250
 c166: yo14 - yd9 <= 315
 c167: yo15 - yd9 <= 379
 c168: yo16 - yd9 <= 318
 c169: yo17 - yd9 <= 94
 c170: yo18 - yd9 <= 458
 c171: yo19 - yd9 <= 195
 c172: yo1 - yd10 <= 441
 c173: yo2 - yd10 <= 345
 c174: yo3 - yd10 <= 236
 c175: yo4 - yd10 <= 354
 c176: yo5 - yd10 <= 404
 c177: yo6 - yd10 <= 325
 c178: yo7 - yd10 <= 98
 c179: yo8 - yd10 <= 54
 c180: yo9 - yd10 <= 370
 c181: yo10 - yd10 <= 139
 c182: yo11 - yd10 <= 363
 c183: yo12 - yd10 <= 176
 c184: yo13 - yd10 <= 221
 c185: yo14 - yd10 <= 215
 c186: yo15 - yd10 <= 336
 c187: yo16 - yd10 <= 394
 c188: yo17 - yd10 <= 429
 c189: yo18 - yd10 <= 152
 c190: yo19 - yd10 <= 112
 c191: yo1 - yd11 <= 278
 c192: yo2 - yd11 <= 180
 c193: yo3 - yd11 <= 218
 c194: yo4 - yd11 <= 82
 c195: yo5 - yd11 <= 442
 c196: yo6 - yd11 <= 65
 c197: yo7 - yd11 <= 317
 c198: yo8 - yd11 <= 57
 c199: yo9 - yd11 <= 296
 c200: yo10 - yd11 <= 150
 c201: yo11 - yd11 <= 65
 c202: yo12 - yd11 <= 207
 c203: yo13 - yd11 <= 172
 c204: yo14 - yd11 <= 300
 c205: yo15 - yd11 <= 118
 c206: yo16 - yd11 <= 120
 c207: yo17 - yd11 <= 239
 c208: yo18 - yd11 <= 56
 c209: yo19 - yd11 <= 185
 c210: yo1 - yd12 <= 263
 c211: yo2 - yd12 <= 324
 c212: yo3 - yd12 <= 265
 c213: yo4 - yd12 <= 431
 c214: yo5 - yd12 <= 101
 c215: yo6 - yd12 <= 488
 c216: yo7 - yd12 <= 224
 c217: yo8 - yd12 <= 77
 c218: yo9 - yd12 <= 156
 c219: yo10 - yd12 <= 101
 c220: yo11 - yd12 <= 89
 c221: yo12 - yd12 <= 449
 c222: yo13 - yd12 <= 55
 c223: yo14 - yd12 <= 388
 c224: yo15 - yd12 <= 291
 c225: yo16 - yd12 <= 63
 c226: yo17 - yd12 <= 208
 c227: yo18 - yd12 <= 79
 c228: yo19 - yd12 <= 474
 c229: yo1 - yd13 <= 141
 c230: yo2 - yd13 <= 200
 c231: yo3 - yd13 <= 265
 c232: yo4 - yd13 <= 418
 c233: yo5 - yd13 <= 343
 c234: yo6 - yd13 <= 76
 c235: yo7 - yd13 <= 252
 c236: yo8 - yd13 <= 142
 c237: yo9 - yd13 <= 409
 c238: yo10 - yd13 <= 384
 c239: yo11 - yd13 <= 157
 c240: yo12 - yd13 <= 164
 c241: yo13 - yd13 <= 127
 c242: yo14 - yd13 <= 69
 c243: yo15 - yd13 <= 357
 c244: yo16 - yd13 <= 371
 c245: yo17 - yd13 <= 85
 c246: yo18 - yd13 <= 282
 c247: yo19 - yd13 <= 388
 c248: yo1 - yd14 <= 191
 c249: yo2 - yd14 <= 320
 c250: yo3 - yd14 <= 247
 c251: yo4 - yd14 <= 112
 c252: yo5 - yd14 <= 395
 c253: yo6 - yd14 <= 189
 c254: yo7 - yd14 <= 195
 c255: yo8 - yd14 <= 253
 c256: yo9 - yd14 <= 170
 c257: yo10 - yd14 <= 385
 c258: yo11 - yd14 <= 470
 c259: yo12 - yd14 <= 90
 c260: yo13 - yd14 <= 394
 c261: yo14 - yd14 <= 94
 c262: yo15 - yd14 <= 343
 c263: yo16 - yd14 <= 94
 c264: yo17 - yd14 <= 170
 c265: yo18 - yd14 <= 226
 c266: yo19 - yd14 <= 398
 c267: yo1 - yd15 <= 55
 c268: yo2 - yd15 <= 412
 c269: yo3 - yd15 <= 347
 c270: yo4 - yd15 <= 66
 c271: yo5 - yd15 <= 219
 c272: yo6 - yd15 <= 443
 c273: yo7 - yd15 <= 68
 c274: yo8 - yd15 <= 353
 c275: yo9 - yd15 <= 337
 c276: yo10 - yd15 <= 288
 c277: yo11 - yd15 <= 258
 c278: yo12 - yd15 <= 263
 c279: yo13 - yd15 <= 98
 c280: yo14 - yd15 <= 97
 c281: yo15 - yd15 <= 62
 c282: yo16 - yd15 <= 307
 c283: yo17 - yd15 <= 94
 c284: yo18 - yd15 <= 484
 c285: yo19 - yd15 <= 459
 c286: yo1 - yd16 <= 199
 c287: yo2 - yd16 <= 391
 c288: yo3 - yd16 <= 291
 c289: yo4 - yd16 <= 144
 c290: yo5 - yd16 <= 269
 c291: yo6 - yd16 <= 54
 c292: yo7 - yd16 <= 85
 c293: yo8 - yd16 <= 268
 c294: yo9 - yd16 <= 105
 c295: yo10 - yd16 <= 188
 c296: yo11 - yd16 <= 376
 c297: yo12 - yd16 <= 295
 c298: yo13 - yd16 <= 80
 c299: yo14 - yd16 <= 129
 c300: yo15 - yd16 <= 316
 c301: yo16 - yd16 <= 105
 c302: yo17 - yd16 <= 379
 c303: yo18 - yd16 <= 77
 c304: yo19 - yd16 <= 277
 c305: yo1 - yd17 <= 310
 c306: yo2 - yd17 <= 191
 c307: yo3 - yd17 <= 163
 c308: yo4 - yd17 <= 396
 c309: yo5 - yd17 <= 379
 c310: yo6 - yd17 <= 131
 c311: yo7 - yd17 <= 194
 c312: yo8 - yd17 <= 69
 c313: yo9 - yd17 <= 402
 c314: yo10 - yd17 <= 288
 c315: yo11 - yd17 <= 321
 c316: yo12 - yd17 <= 182
 c317: yo13 - yd17 <= 289
 c318: yo14 - yd17 <= 117
 c319: yo15 - yd17 <= 238
 c320: yo16 - yd17 <= 208
 c321: yo17 - yd17 <= 313
 c322: yo18 - yd17 <= 288
 c323: yo19 - yd17 <= 85
 c324: yo1 - yd18 <= 439
 c325: yo2 - yd18 <= 247
 c326: yo3 - yd18 <= 51
 c327: yo4 - yd18 <= 483
 c328: yo5 - yd18 <= 94
 c329: yo6 - yd18 <= 486
 c330: yo7 - yd18 <= 126
 c331: yo8 - yd18 <= 427
 c332: yo9 - yd18 <= 317
 c333: yo10 - yd18 <= 393
 c334: yo11 - yd18 <= 342
 c335: yo12 - yd18 <= 426
 c336: yo13 - yd18 <= 249
 c337: yo14 - yd18 <= 288
 c338: yo15 - yd18 <= 282
 c339: yo16 - yd18 <= 167
 c340: yo17 - yd18 <= 98
 c341: yo18 - yd18 <= 287
 c342: yo19 - yd18 <= 423
Bounds
      yd1 >= 0
      yo1 >= 0
      yo2 >= 0
      yo3 >= 0
      yo4 >= 0
      yo5 >= 0
      yo6 >= 0
      yo7 >= 0
      yo8 >= 0
      yo9 >= 0
      yo10 >= 0
      yo11 >= 0
      yo12 >= 0
      yo13 >= 0
      yo14 >= 0
      yo15 >= 0
      yo16 >= 0
      yo17 >= 0
      yo18 >= 0
      yo19 >= 0
      yd2 >= 0
      yd3 >= 0
      yd4 >= 0
      yd5 >= 0
      yd6 >= 0
      yd7 >= 0
      yd8 >= 0
      yd9 >= 0
      yd10 >= 0
      yd11 >= 0
      yd12 >= 0
      yd13 >= 0
      yd14 >= 0
      yd15 >= 0
      yd16 >= 0
      yd17 >= 0
      yd18 >= 0
Generals
 yd1  yo1  yo2  yo3  yo4  yo5  yo6  yo7  yo8  yo9  yo10  yo11  yo12  yo13 
 yo14  yo15  yo16  yo17  yo18  yo19  yd2  yd3  yd4  yd5  yd6  yd7  yd8  yd9 
 yd10  yd11  yd12  yd13  yd14  yd15  yd16  yd17  yd18 
End
